data/instances/vrp_files/train_2.vrp
NAME : 2
COMMENT : Generated instance No. 2
TYPE : CVRP
DIMENSION : 21
EDGE_WEIGHT_TYPE : EUC_2D
CAPACITY : 30
NODE_COORD_SECTION
 1 633 535
 2 318 110
 3 227 427
 4 818 860
 5 6 510
 6 417 222
 7 119 337
 8 942 323
 9 518 703
 10 363 971
 11 962 251
 12 497 300
 13 284 36
 14 609 502
 15 51 278
 16 908 239
 17 144 489
 18 985 242
 19 672 761
 20 237 728
 21 367 632
DEMAND_SECTION
1 0
2 1
3 9
4 6
5 3
6 4
7 4
8 3
9 10
10 3
11 3
12 4
13 7
14 4
15 9
16 1
17 8
18 7
19 2
20 8
21 1
DEPOT_SECTION
 1
 -1
EOF